; K = 1
; Transition relation
(define-fun T ((%init Bool) ($igsw$0 Bool) ($ccd$0 Bool) ($cconoff$0 Bool) ($bpa$0 Bool) ($cccanc$0 Bool) ($battok$0 Bool) ($gearok$0 Bool) ($qfok$0 Bool) ($sdok$0 Bool) ($accok$0 Bool) ($ccseti$0 Bool) ($ccsetd$0 Bool) ($ccr$0 Bool) ($vs$0 Int) ($V86_ccont$0 Bool) ($~flatten0$0 Bool) ($V87_cca$0 Bool) ($OK$0 Bool) ($V82_p1$0 Bool) ($V83_p2$0 Bool) ($V84_p3$0 Bool) ($V85_p4$0 Bool) ($igsw$1 Bool) ($ccd$1 Bool) ($cconoff$1 Bool) ($bpa$1 Bool) ($cccanc$1 Bool) ($battok$1 Bool) ($gearok$1 Bool) ($qfok$1 Bool) ($sdok$1 Bool) ($accok$1 Bool) ($ccseti$1 Bool) ($ccsetd$1 Bool) ($ccr$1 Bool) ($vs$1 Int) ($V86_ccont$1 Bool) ($~flatten0$1 Bool) ($V87_cca$1 Bool) ($OK$1 Bool) ($V82_p1$1 Bool) ($V83_p2$1 Bool) ($V84_p3$1 Bool) ($V85_p4$1 Bool)) Bool (and (= $OK$1 (and (and (and $V82_p1$1 $V83_p2$1) $V84_p3$1) $V85_p4$1)) (= $V82_p1$1 (ite (ite %init false (and $V87_cca$1 (not $V87_cca$0))) (or (or (ite %init false (and $ccseti$1 (not $ccseti$0))) (ite %init false (and $ccsetd$1 (not $ccsetd$0)))) (ite %init false (and $ccr$1 (not $ccr$0)))) true)) (= $V83_p2$1 (ite (not (and (and (and (and (and (and (and (and (and $V86_ccont$1 (not $bpa$1)) $battok$1) $gearok$1) $qfok$1) (ite %init false (and $sdok$0 $sdok$1))) (<= 35 $vs$1)) (<= $vs$1 200)) (ite %init false (and $~flatten0$0 $accok$1))) (not $cccanc$1))) (not $V87_cca$1) true)) (= $V84_p3$1 (ite (ite %init false (and $V86_ccont$1 (not $V86_ccont$0))) (and (and (not (ite %init false (or (and $igsw$1 (not $igsw$0)) (and (not $igsw$1) $igsw$0)))) (not $ccd$1)) (ite %init false (and $cconoff$1 (not $cconoff$0)))) true)) (= $V85_p4$1 (ite (ite %init false (or (and $igsw$1 (not $igsw$0)) (and (not $igsw$1) $igsw$0))) (not $V87_cca$1) true))))
; Universally quantified variables
(declare-fun $igsw$~1 () Bool)
(declare-fun $ccd$~1 () Bool)
(declare-fun $cconoff$~1 () Bool)
(declare-fun $bpa$~1 () Bool)
(declare-fun $cccanc$~1 () Bool)
(declare-fun $battok$~1 () Bool)
(declare-fun $gearok$~1 () Bool)
(declare-fun $qfok$~1 () Bool)
(declare-fun $sdok$~1 () Bool)
(declare-fun $accok$~1 () Bool)
(declare-fun $ccseti$~1 () Bool)
(declare-fun $ccsetd$~1 () Bool)
(declare-fun $ccr$~1 () Bool)
(declare-fun $vs$~1 () Int)
(declare-fun $V86_ccont$~1 () Bool)
(declare-fun $~flatten0$~1 () Bool)
(declare-fun $V87_cca$~1 () Bool)
(declare-fun $OK$~1 () Bool)
(declare-fun $V82_p1$~1 () Bool)
(declare-fun $V83_p2$~1 () Bool)
(declare-fun $V84_p3$~1 () Bool)
(declare-fun $V85_p4$~1 () Bool)
(declare-fun $igsw$0 () Bool)
(declare-fun $ccd$0 () Bool)
(declare-fun $cconoff$0 () Bool)
(declare-fun $bpa$0 () Bool)
(declare-fun $cccanc$0 () Bool)
(declare-fun $battok$0 () Bool)
(declare-fun $gearok$0 () Bool)
(declare-fun $qfok$0 () Bool)
(declare-fun $sdok$0 () Bool)
(declare-fun $accok$0 () Bool)
(declare-fun $ccseti$0 () Bool)
(declare-fun $ccsetd$0 () Bool)
(declare-fun $ccr$0 () Bool)
(declare-fun $vs$0 () Int)
(declare-fun $V86_ccont$0 () Bool)
(declare-fun $~flatten0$0 () Bool)
(declare-fun $V87_cca$0 () Bool)
(declare-fun $OK$0 () Bool)
(declare-fun $V82_p1$0 () Bool)
(declare-fun $V83_p2$0 () Bool)
(declare-fun $V84_p3$0 () Bool)
(declare-fun $V85_p4$0 () Bool)
(assert (T true $igsw$~1 $ccd$~1 $cconoff$~1 $bpa$~1 $cccanc$~1 $battok$~1 $gearok$~1 $qfok$~1 $sdok$~1 $accok$~1 $ccseti$~1 $ccsetd$~1 $ccr$~1 $vs$~1 $V86_ccont$~1 $~flatten0$~1 $V87_cca$~1 $OK$~1 $V82_p1$~1 $V83_p2$~1 $V84_p3$~1 $V85_p4$~1 $igsw$0 $ccd$0 $cconoff$0 $bpa$0 $cccanc$0 $battok$0 $gearok$0 $qfok$0 $sdok$0 $accok$0 $ccseti$0 $ccsetd$0 $ccr$0 $vs$0 $V86_ccont$0 $~flatten0$0 $V87_cca$0 $OK$0 $V82_p1$0 $V83_p2$0 $V84_p3$0 $V85_p4$0))
